(set-info :smt-lib-version 2.6)
(set-logic QF_NIA)
(set-info :source |
Generated by: Cristina Borralleras, Daniel Larraz, Albert Oliveras, Enric Rodriguez-Carbonell, Albert Rubio
Generated on: 2017-04-27
Generator: VeryMax
Application: Termination proving
Target solver: barcelogic
|)
(set-info :license "https://creativecommons.org/licenses/by/4.0/")
(set-info :category "industrial")
(set-info :status unsat)
(declare-fun Nl1x^01 () Int)
(declare-fun Nl1y^01 () Int)
(declare-fun Nl1z^01 () Int)
(declare-fun lam0n0 () Int)
(declare-fun lam0n1 () Int)
(declare-fun lam0n3 () Int)
(declare-fun lam0n2 () Int)
(declare-fun Nl1CT1 () Int)
(declare-fun lam1n0 () Int)
(declare-fun lam1n1 () Int)
(declare-fun lam1n3 () Int)
(declare-fun lam1n2 () Int)
(declare-fun lam2n0 () Int)
(declare-fun lam2n1 () Int)
(declare-fun lam2n3 () Int)
(declare-fun lam2n2 () Int)
(declare-fun lam3n0 () Int)
(declare-fun lam3n1 () Int)
(declare-fun lam3n3 () Int)
(declare-fun lam3n2 () Int)
(declare-fun lam4n0 () Int)
(declare-fun lam4n1 () Int)
(declare-fun lam4n2 () Int)
(declare-fun x^0 () Int)
(declare-fun z^0 () Int)
(declare-fun y^0 () Int)
(declare-fun lam8n0 () Int)
(declare-fun lam8n1 () Int)
(declare-fun lam8n2 () Int)
(declare-fun lam8n4 () Int)
(declare-fun lam8n3 () Int)
(declare-fun RFN1_CT () Int)
(declare-fun RFN1_x^0 () Int)
(declare-fun RFN1_y^0 () Int)
(declare-fun RFN1_z^0 () Int)
(declare-fun lam6n0 () Int)
(declare-fun lam6n1 () Int)
(declare-fun lam6n2 () Int)
(declare-fun lam6n4 () Int)
(declare-fun lam6n3 () Int)
(declare-fun lam7n0 () Int)
(declare-fun lam7n1 () Int)
(declare-fun lam7n2 () Int)
(declare-fun lam7n4 () Int)
(declare-fun lam7n3 () Int)
(declare-fun lam5n0 () Int)
(declare-fun lam5n1 () Int)
(declare-fun lam5n2 () Int)
(declare-fun lam5n4 () Int)
(declare-fun lam5n3 () Int)
(assert ( and ( <= ( - 1 ) Nl1x^01 ) ( <= Nl1x^01 1 ) ( <= ( - 1 ) Nl1y^01 ) ( <= Nl1y^01 1 ) ( <= ( - 1 ) Nl1z^01 ) ( <= Nl1z^01 1 ) ))
(assert ( or ( and ( >= lam0n0 0 ) ( >= lam0n1 0 ) ( >= lam0n3 0 ) ( > ( + ( * 1 lam0n0 ) ( * 2 lam0n1 ) ( * ( - 1 ) lam0n2 ) ( * Nl1CT1 lam0n3 ) ( - 1 ) ) 0 ) ( = ( + ( * ( - 1 ) lam0n0 ) ( * ( - 1 ) lam0n1 ) ( * Nl1x^01 lam0n3 ) ) 0 ) ( = ( * Nl1y^01 lam0n3 ) 0 ) ( = ( + ( * ( - 1 ) lam0n1 ) ( * 1 lam0n2 ) ( * Nl1z^01 lam0n3 ) ) 0 ) ) ( and ( >= lam1n0 0 ) ( >= lam1n1 0 ) ( >= lam1n3 0 ) ( > ( + ( * 1 lam1n0 ) ( * 2 lam1n1 ) ( * ( - 1 ) lam1n2 ) ( * Nl1CT1 lam1n3 ) ( - 1 ( + ( + Nl1CT1 ( * Nl1x^01 0 ) ) ( * Nl1y^01 ( - 1 ) ) ) ) ) 0 ) ( = ( + ( * ( - 1 ) lam1n0 ) ( * ( - 1 ) lam1n1 ) ( * Nl1x^01 lam1n3 ) ) 0 ) ( = ( + ( * Nl1y^01 lam1n3 ) ( - ( + 0 ( * Nl1y^01 1 ) ) ) ) 0 ) ( = ( + ( * ( - 1 ) lam1n1 ) ( * 1 lam1n2 ) ( * Nl1z^01 lam1n3 ) ( - ( + ( + 0 ( * Nl1x^01 1 ) ) Nl1z^01 ) ) ) 0 ) ) ))
(assert ( or ( and ( >= lam2n0 0 ) ( >= lam2n1 0 ) ( >= lam2n3 0 ) ( > ( + ( * 1 lam2n0 ) ( * 2 lam2n1 ) ( * ( - 1 ) lam2n2 ) ( * Nl1CT1 lam2n3 ) ( - 1 ) ) 0 ) ( = ( + ( * ( - 1 ) lam2n0 ) ( * ( - 1 ) lam2n1 ) ( * Nl1x^01 lam2n3 ) ) 0 ) ( = ( * Nl1y^01 lam2n3 ) 0 ) ( = ( + ( * ( - 1 ) lam2n1 ) ( * 1 lam2n2 ) ( * Nl1z^01 lam2n3 ) ) 0 ) ) ( and ( >= lam3n0 0 ) ( >= lam3n1 0 ) ( >= lam3n3 0 ) ( > ( + ( * 1 lam3n0 ) ( * 2 lam3n1 ) ( * ( - 1 ) lam3n2 ) ( * Nl1CT1 lam3n3 ) ( - 1 ( + Nl1CT1 ( * Nl1x^01 ( - 1 ) ) ) ) ) 0 ) ( = ( + ( * ( - 1 ) lam3n0 ) ( * ( - 1 ) lam3n1 ) ( * Nl1x^01 lam3n3 ) ( - ( + 0 ( * Nl1x^01 1 ) ) ) ) 0 ) ( = ( + ( * Nl1y^01 lam3n3 ) ( - ( + 0 Nl1y^01 ) ) ) 0 ) ( = ( + ( * ( - 1 ) lam3n1 ) ( * 1 lam3n2 ) ( * Nl1z^01 lam3n3 ) ( - ( + 0 Nl1z^01 ) ) ) 0 ) ) ))
(assert ( and ( not ( <= x^0 0 ) ) ( not ( <= z^0 0 ) ) ( not ( <= ( + ( - 1 ) x^0 z^0 ) 0 ) ) ( <= ( + Nl1CT1 ( * ( + 0 Nl1x^01 ) x^0 ) ( * ( + 0 Nl1y^01 ) y^0 ) ( * ( + 0 Nl1z^01 ) z^0 ) ) 0 ) ( <= ( + ( - 1 ) z^0 ) 0 ) ))
(assert ( or ( and ( and ( >= lam8n0 0 ) ( >= lam8n1 0 ) ( >= lam8n2 0 ) ( >= lam8n4 0 ) ( > ( + ( * 1 lam8n0 ) ( * 2 lam8n1 ) ( * 50001 lam8n2 ) ( * ( - 1 ) lam8n3 ) ( * Nl1CT1 lam8n4 ) ( - 1 ( - ( + ( + RFN1_CT ( * RFN1_x^0 0 ) ) ( * RFN1_y^0 ( - 1 ) ) ) RFN1_CT ) ) ) 0 ) ( = ( + ( * ( - 1 ) lam8n0 ) ( * ( - 1 ) lam8n1 ) ( * Nl1x^01 lam8n4 ) ( - ( - RFN1_x^0 ) ) ) 0 ) ( = ( + ( * 1 lam8n2 ) ( * Nl1y^01 lam8n4 ) ( - ( - ( + 0 ( * RFN1_y^0 1 ) ) RFN1_y^0 ) ) ) 0 ) ( = ( + ( * ( - 1 ) lam8n1 ) ( * 1 lam8n3 ) ( * Nl1z^01 lam8n4 ) ( - ( - ( + ( + 0 ( * RFN1_x^0 1 ) ) RFN1_z^0 ) RFN1_z^0 ) ) ) 0 ) ) ( and ( and ( >= lam6n0 0 ) ( >= lam6n1 0 ) ( >= lam6n2 0 ) ( >= lam6n4 0 ) ( > ( + ( * 1 lam6n0 ) ( * 2 lam6n1 ) ( * 50001 lam6n2 ) ( * ( - 1 ) lam6n3 ) ( * Nl1CT1 lam6n4 ) ( - 1 ( - RFN1_CT ) ) ) 0 ) ( = ( + ( * ( - 1 ) lam6n0 ) ( * ( - 1 ) lam6n1 ) ( * Nl1x^01 lam6n4 ) ( - ( - RFN1_x^0 ) ) ) 0 ) ( = ( + ( * 1 lam6n2 ) ( * Nl1y^01 lam6n4 ) ( - ( - RFN1_y^0 ) ) ) 0 ) ( = ( + ( * ( - 1 ) lam6n1 ) ( * 1 lam6n3 ) ( * Nl1z^01 lam6n4 ) ( - ( - RFN1_z^0 ) ) ) 0 ) ) ( and ( >= lam7n0 0 ) ( >= lam7n1 0 ) ( >= lam7n2 0 ) ( >= lam7n4 0 ) ( > ( + ( * 1 lam7n0 ) ( * 2 lam7n1 ) ( * 50001 lam7n2 ) ( * ( - 1 ) lam7n3 ) ( * Nl1CT1 lam7n4 ) ( - 1 ( + ( - ( + ( + RFN1_CT ( * RFN1_x^0 0 ) ) ( * RFN1_y^0 ( - 1 ) ) ) RFN1_CT ) 1 ) ) ) 0 ) ( = ( + ( * ( - 1 ) lam7n0 ) ( * ( - 1 ) lam7n1 ) ( * Nl1x^01 lam7n4 ) ( - ( - RFN1_x^0 ) ) ) 0 ) ( = ( + ( * 1 lam7n2 ) ( * Nl1y^01 lam7n4 ) ( - ( - ( + 0 ( * RFN1_y^0 1 ) ) RFN1_y^0 ) ) ) 0 ) ( = ( + ( * ( - 1 ) lam7n1 ) ( * 1 lam7n3 ) ( * Nl1z^01 lam7n4 ) ( - ( - ( + ( + 0 ( * RFN1_x^0 1 ) ) RFN1_z^0 ) RFN1_z^0 ) ) ) 0 ) ) ) ) ( and ( >= lam5n0 0 ) ( >= lam5n1 0 ) ( >= lam5n2 0 ) ( >= lam5n4 0 ) ( > ( + ( * 1 lam5n0 ) ( * 2 lam5n1 ) ( * 50001 lam5n2 ) ( * ( - 1 ) lam5n3 ) ( * Nl1CT1 lam5n4 ) ( - 1 ) ) 0 ) ( = ( + ( * ( - 1 ) lam5n0 ) ( * ( - 1 ) lam5n1 ) ( * Nl1x^01 lam5n4 ) ) 0 ) ( = ( + ( * 1 lam5n2 ) ( * Nl1y^01 lam5n4 ) ) 0 ) ( = ( + ( * ( - 1 ) lam5n1 ) ( * 1 lam5n3 ) ( * Nl1z^01 lam5n4 ) ) 0 ) ) ))
(check-sat)
(exit)
